\* Student-Project-Allocator *\
Maximize
OBJ: obj_greedy_rank_5
Subject To
_C1: (1,2) + (2,5) + (3,3) + (4,6) + (5,1) + (6,1) - obj_greedy_rank_1 = 0
_C10: obj_greedy_rank_5 >= 0
_C2: obj_greedy_rank_1 >= 6
_C3: (1,6) + (2,2) + (3,1) + (4,1) + (4,3) + (5,5) + (5,6) + (6,4)
 - obj_greedy_rank_2 = 0
_C4: obj_greedy_rank_2 >= 0
_C5: (1,4) + (2,4) + (3,2) + (4,2) + (4,8) + (5,4) + (6,8) - obj_greedy_rank_3
 = 0
_C6: obj_greedy_rank_3 >= 0
_C7: (2,8) + (3,4) + (5,2) + (6,3) - obj_greedy_rank_4 = 0
_C8: obj_greedy_rank_4 >= 0
_C9: (3,6) + (6,2) - obj_greedy_rank_5 = 0
lec_lq_0: (1,2) + (2,2) + (3,1) + (3,2) + (4,1) + (4,2) + (5,1) + (5,2)
 + (6,1) + (6,2) >= 0
lec_lq_1: (1,4) + (2,4) + (3,3) + (3,4) + (4,3) + (5,4) + (6,3) + (6,4) >= 0
lec_lq_2: (1,6) + (2,5) + (3,6) + (4,6) + (5,5) + (5,6) >= 0
lec_lq_3: (2,8) + (4,8) + (6,8) >= 0
lec_uq_0: (1,2) + (2,2) + (3,1) + (3,2) + (4,1) + (4,2) + (5,1) + (5,2)
 + (6,1) + (6,2) <= 3
lec_uq_1: (1,4) + (2,4) + (3,3) + (3,4) + (4,3) + (5,4) + (6,3) + (6,4) <= 3
lec_uq_2: (1,6) + (2,5) + (3,6) + (4,6) + (5,5) + (5,6) <= 2
lec_uq_3: (2,8) + (4,8) + (6,8) <= 2
proj_lq_0: (3,1) + (4,1) + (5,1) + (6,1) >= 0
proj_lq_1: (1,2) + (2,2) + (3,2) + (4,2) + (5,2) + (6,2) >= 0
proj_lq_2: (3,3) + (4,3) + (6,3) >= 0
proj_lq_3: (1,4) + (2,4) + (3,4) + (5,4) + (6,4) >= 0
proj_lq_4: (2,5) + (5,5) >= 0
proj_lq_5: (1,6) + (3,6) + (4,6) + (5,6) >= 0
_dummy: __dummy = 0
proj_lq_6: __dummy >= 0
proj_lq_7: (2,8) + (4,8) + (6,8) >= 0
proj_uq_0: (3,1) + (4,1) + (5,1) + (6,1) <= 2
proj_uq_1: (1,2) + (2,2) + (3,2) + (4,2) + (5,2) + (6,2) <= 2
proj_uq_2: (3,3) + (4,3) + (6,3) <= 1
proj_uq_3: (1,4) + (2,4) + (3,4) + (5,4) + (6,4) <= 1
proj_uq_4: (2,5) + (5,5) <= 1
proj_uq_5: (1,6) + (3,6) + (4,6) + (5,6) <= 1
proj_uq_6: __dummy <= 1
proj_uq_7: (2,8) + (4,8) + (6,8) <= 1
st_limit_0: (1,2) + (1,4) + (1,6) <= 1
st_limit_1: (2,2) + (2,4) + (2,5) + (2,8) <= 1
st_limit_2: (3,1) + (3,2) + (3,3) + (3,4) + (3,6) <= 1
st_limit_3: (4,1) + (4,2) + (4,3) + (4,6) + (4,8) <= 1
st_limit_4: (5,1) + (5,2) + (5,4) + (5,5) + (5,6) <= 1
st_limit_5: (6,1) + (6,2) + (6,3) + (6,4) + (6,8) <= 1
Bounds
__dummy = 0
0 <= obj_greedy_rank_1 <= 6
0 <= obj_greedy_rank_2 <= 6
0 <= obj_greedy_rank_3 <= 6
0 <= obj_greedy_rank_4 <= 6
0 <= obj_greedy_rank_5 <= 6
Generals
obj_greedy_rank_1
obj_greedy_rank_2
obj_greedy_rank_3
obj_greedy_rank_4
obj_greedy_rank_5
Binaries
(1,2)
(1,4)
(1,6)
(2,2)
(2,4)
(2,5)
(2,8)
(3,1)
(3,2)
(3,3)
(3,4)
(3,6)
(4,1)
(4,2)
(4,3)
(4,6)
(4,8)
(5,1)
(5,2)
(5,4)
(5,5)
(5,6)
(6,1)
(6,2)
(6,3)
(6,4)
(6,8)
End
